(set-option :produce-models true)
(set-option :global-declarations true)
(set-option :produce-unsat-cores true)
(set-option :produce-abducts true)
(set-logic ALL)
(get-info :error-behavior)
(push 1)

(declare-fun y () (_ BitVec 8))
(define-fun x!0 () Bool (= (_ bv0 8) y))
(define-fun x!1 () Bool (not x!0))
(push 2)
(assert (! x!1 :named x!2))
(check-sat)
(get-value (y))
(pop 2)
(get-abduct abd x!0)
(get-abduct-next)
(get-abduct-next)
(pop 1)
(exit)